(set-logic BV) (define-fun origCir ((n178 Bool) (n165 Bool) (n152 Bool) (n117 Bool)) Bool (and n178 (and n165 (and n152 n117)))) (synth-fun skel ((n178 Bool) (n165 Bool) (n152 Bool) (n117 Bool)) Bool) (declare-var n178 Bool) (declare-var n165 Bool) (declare-var n152 Bool) (declare-var n117 Bool) (constraint (= (origCir n178 n165 n152 n117) (skel n178 n165 n152 n117))) (check-synth)
